Set parameter TokenServer to value "hpc-licenses.hpcc.usc.edu"
Set parameter TimeLimit to value 3600
Gurobi Optimizer version 9.5.1 build v9.5.1rc2 (linux64)
Thread count: 20 physical cores, 20 logical processors, using up to 20 threads
Optimize a model with 6007 rows, 4529 columns and 24534 nonzeros
Model fingerprint: 0x970e96e1
Variable types: 4506 continuous, 23 integer (23 binary)
Coefficient statistics:
  Matrix range     [1e+00, 1e+00]
  Objective range  [6e-05, 1e+00]
  Bounds range     [1e+00, 1e+00]
  RHS range        [1e+00, 2e+02]
Found heuristic solution: objective 219.9640896
Presolve removed 1520 rows and 1515 columns
Presolve time: 0.06s
Presolved: 4487 rows, 3014 columns, 21975 nonzeros
Variable types: 2994 continuous, 20 integer (20 binary)

Root relaxation: objective 2.354199e+02, 2556 iterations, 0.11 seconds (0.12 work units)

    Nodes    |    Current Node    |     Objective Bounds      |     Work
 Expl Unexpl |  Obj  Depth IntInf | Incumbent    BestBd   Gap | It/Node Time

     0     0  235.41993    0    2  219.96409  235.41993  7.03%     -    0s
H    0     0                     234.5024119  235.41993  0.39%     -    0s
     0     0  235.39791    0    4  234.50241  235.39791  0.38%     -    0s
     0     0  235.39791    0    2  234.50241  235.39791  0.38%     -    0s
     0     0  235.39364    0    4  234.50241  235.39364  0.38%     -    1s
     0     0  235.30095    0    4  234.50241  235.30095  0.34%     -    1s
     0     0  235.27494    0    4  234.50241  235.27494  0.33%     -    1s
     0     0  235.03376    0    4  234.50241  235.03376  0.23%     -    1s
     0     0  235.03376    0    4  234.50241  235.03376  0.23%     -    1s
     0     2  235.03376    0    4  234.50241  235.03376  0.23%     -    1s

Cutting planes:
  Gomory: 5
  MIR: 192

Explored 11 nodes (6838 simplex iterations) in 3.53 seconds (1.42 work units)
Thread count was 20 (of 20 available processors)

Solution count 2: 234.502 219.964 

Optimal solution found (tolerance 1.00e-04)
Best objective 2.345024118675e+02, best bound 2.345024118675e+02, gap 0.0000%



#########node  1
V1.6
#########node  2
0.11764705882352941,0.8823529411764706
#########node  3
1.0,0.0


Total Solving Time 3.991391658782959
obj value 234.50241186750446
Policy Regret train (Sum) 1.948859407221686
Best Treatment Found train (%) 79.80000000000001
treatment classification acc train (%) 70.19999999999999
Policy Regret test (Sum) 33.257454375572316
Best Treatment Found test (%) 81.92
treatment classification acc test (%) 70.34
